************************************************************************
file with basedata            : cn326_.bas
initial value random generator: 1285967682
************************************************************************
projects                      :  1
jobs (incl. supersource/sink ):  18
horizon                       :  131
RESOURCES
  - renewable                 :  2   R
  - nonrenewable              :  3   N
  - doubly constrained        :  0   D
************************************************************************
PROJECT INFORMATION:
pronr.  #jobs rel.date duedate tardcost  MPM-Time
    1     16      0       27       11       27
************************************************************************
PRECEDENCE RELATIONS:
jobnr.    #modes  #successors   successors
   1        1          3           2   3   4
   2        3          3           9  12  15
   3        3          3           5  11  17
   4        3          3           6   9  13
   5        3          3           8   9  10
   6        3          3           7  11  15
   7        3          3           8  14  17
   8        3          1          12
   9        3          1          16
  10        3          1          13
  11        3          2          12  14
  12        3          1          16
  13        3          2          14  15
  14        3          1          16
  15        3          1          18
  16        3          1          18
  17        3          1          18
  18        1          0        
************************************************************************
REQUESTS/DURATIONS:
jobnr. mode duration  R 1  R 2  N 1  N 2  N 3
------------------------------------------------------------------------
  1      1     0       0    0    0    0    0
  2      1     4       0    7    9    0    1
         2     5       0    4    7    0    0
         3     8       0    3    0    5    0
  3      1     9      10    0    6    0    6
         2    10       7    0    4    0    6
         3    10       0    4    0    3    4
  4      1     7       9    0    6    5    0
         2     8       9    0    4    0    0
         3     8       0    7    0    5    0
  5      1     3       8    0    0    0    3
         2     9       7    0    8    0    0
         3    10       0    4    0    9    0
  6      1     4       0    8    0    8    0
         2     7       5    0    0    8    3
         3     8       1    0    2    5    0
  7      1     2      10    0    0    6    8
         2     4       6    0    3    5    0
         3     7       4    0    0    3    5
  8      1     4       0    4    9    0    0
         2     7       5    0    5    0    0
         3     9       5    0    0    7    0
  9      1     3       9    0    0    0    8
         2     7       0    2    4    5    5
         3    10       9    0    3    4    0
 10      1     1       7    0    0    8    0
         2     1       0    8    0    8    0
         3     6       7    0    0    0    3
 11      1     4       4    0    0    5    3
         2     5       4    0    0    2    2
         3     9       0    8    6    0    0
 12      1     4       0    5    0    9    3
         2     8       1    0    0    8    2
         3     9       0    5    0    7    1
 13      1     2       9    0    8    3    7
         2     4       0    7    0    0    4
         3     5       0    7    0    0    2
 14      1     1       9    0    3    0   10
         2     3       9    0    2    0    8
         3     6       0    5    1    0    7
 15      1     2       9    0    0    3    3
         2     5       8    0    2    0    2
         3    10       5    0    0    0    2
 16      1     6       0    6   10    0    0
         2     8      10    0    0    0    2
         3     9       8    0    0    0    2
 17      1     4       0    6    5    0    0
         2     6       0    5    0    6    0
         3     7       3    0    5    0    0
 18      1     0       0    0    0    0    0
************************************************************************
RESOURCEAVAILABILITIES:
  R 1  R 2  N 1  N 2  N 3
   19   13   81   82   60
************************************************************************
